W=5;
H=3;

MAX_TIME=10;
MAX_TRACKS=6;

TARGET=(3,5);

N_TRAINS=1;
TRAINS=[(3,1,RIGHT)];

N_INIT_POS=3;
INIT_POS=[
(1,3,STRAIGHT_RL),
(3,1,STRAIGHT_RL),
(3,5,STRAIGHT_RL),
];
N_TUNNELS=0;
TUNNEL_PAIRS=[];

N_GATES=0;
GATES=[];
N_ACTIVATIONS=0;
ACTIVATIONS=[];

N_DSWITCHES=0;
DSWITCHES=[];
N_STATIONS=1;
STATIONS=[
  (1,3,1),
];
